100	1
0 46
0 52
0 58
0 30
0 77
0 42
0 39
0 22
0 46
0 4
0 24
0 23
0 21
0 31
0 13
0 43
0 80
0 11
0 35
0 45
0 64
0 62
0 50
0 62
0 92
0 89
0 85
0 68
0 89
0 5
0 87
0 48
0 40
0 48
0 6
0 83
0 61
0 6
0 55
0 83
0 14
0 58
0 37
0 81
0 94
0 81
0 43
0 63
0 77
0 45
0 76
0 47
0 67
0 28
0 29
0 89
0 22
0 43
0 59
0 14
0 70
0 90
0 60
0 55
0 23
0 42
0 51
0 30
0 5
0 53
0 36
0 72
0 49
0 71
0 79
0 32
0 18
0 58
0 27
0 91
0 97
0 66
0 29
0 36
0 80
0 2
0 49
0 28
0 5
0 86
0 84
0 30
0 2
0 95
0 36
0 56
0 60
0 24
0 69
0 83
